* Signature: 0x764bd556ef4c123e
NAME lp_typeD_140
OBJSENSE MAX
ROWS
 N  OBJ
 L  c0      
 L  c1      
 G  c2      
 G  c3      
 L  c_key_upper
 G  c_key_lower
 G  _chain_constr_1
 G  _chain_constr_2
 G  _chain_constr_3
 G  _chain_constr_4
 G  _chain_cycle
COLUMNS
    x0        OBJ       1.1041489767854040e+00
    x0        c0        1.5495208886349332e+00
    x0        c1        1.7937030781883174e+00
    x0        c2        5.8196976693526192e-01
    x0        c3        1.5685193153232619e+00
    x0        c_key_upper  1.3893557218200216e+00
    x0        c_key_lower  1.3893557218200216e+00
    x1        OBJ       1.1792200248863693e+00
    x1        c0        1.3897570156274521e+00
    x1        c1        1.1780363157840470e+00
    x1        c2        1.6171676535246835e+00
    x1        c3        1.0154978670025430e+00
    x1        c_key_upper  1.4097709708443786e+00
    x1        c_key_lower  1.4097709708443786e+00
    x2        OBJ       6.2197899944130630e-01
    x2        c0        1.3888604614777795e+00
    x2        c1        1.8875263046653470e+00
    x2        c2        1.6899125991342163e+00
    x2        c3        6.5285421854386938e-01
    x2        c_key_upper  1.4899230109142985e+00
    x2        c_key_lower  1.4899230109142985e+00
    x3        OBJ       1.1557918880743721e+00
    x3        c0        5.9247767234498716e-01
    x3        c1        5.9822777541934791e-01
    x3        c2        9.3149133507578130e-01
    x3        c3        7.1830075854724762e-01
    x3        c_key_upper  1.7034959887099108e+00
    x3        c_key_lower  1.7034959887099108e+00
    x4        OBJ       7.9426851056064807e-01
    x4        c0        1.8737714506694454e+00
    x4        c1        1.1496723827607924e+00
    x4        c2        1.4328724261185632e+00
    x4        c3        8.8009269062301820e-01
    x4        c_key_upper  1.1146342845556250e+00
    x4        c_key_lower  1.1146342845556250e+00
    x5        OBJ       1.4700410395483927e+00
    x5        c0        6.2802611171977829e-01
    x5        c1        1.0276598246151563e+00
    x5        c2        1.6591741474604289e+00
    x5        c3        8.8022732043217422e-01
    x5        c_key_upper  1.43122072097387
    x5        c_key_lower  1.43122072097387
    x6        OBJ       1.1904859225839353e+00
    x6        c0        1.2754693160861967e+00
    x6        c1        5.8262234446021721e-01
    x6        c2        1.3841714776810716e+00
    x6        c3        1.1332917806332579e+00
    x6        c_key_upper  1.4440918294548903e+00
    x6        c_key_lower  1.4440918294548903e+00
    x7        OBJ       6.4219682771635334e-01
    x7        c0        1.7094834480945404e+00
    x7        c1        1.3490296486562818e+00
    x7        c2        1.63844765649384
    x7        c3        1.8108105516568804e+00
    x7        c_key_upper  1.7757015199763417e+00
    x7        c_key_lower  1.7757015199763417e+00
    x8        OBJ       5.4853942340768969e-01
    x8        c0        1.8740474718063183e+00
    x8        c1        6.5762191987061958e-01
    x8        c2        1.9220789028371459e+00
    x8        c3        7.8335140963118510e-01
    x8        c_key_upper  1.0589288706059161e+00
    x8        c_key_lower  1.0589288706059161e+00
    _chain_var_0  _chain_constr_1  -1
    _chain_var_0  _chain_cycle  1
    _chain_var_1  _chain_constr_1  1
    _chain_var_1  _chain_constr_2  -1
    _chain_var_2  _chain_constr_2  1
    _chain_var_2  _chain_constr_3  -1
    _chain_var_3  _chain_constr_3  1
    _chain_var_3  _chain_constr_4  -1
    _chain_var_4  _chain_constr_4  1
    _chain_var_4  _chain_cycle  -1
RHS
    RHS1      c0        6.8932847298662921e+01
    RHS1      c1        5.5083853687948896e+01
    RHS1      c2        1.5689493825132823e+01
    RHS1      c3        1.1944560071662940e+01
    RHS1      c_key_upper  6.4085614589276261e+01
    RHS1      c_key_lower  3.2042807294638131e+01
    RHS1      _chain_constr_1  10
    RHS1      _chain_constr_2  10
    RHS1      _chain_constr_3  10
    RHS1      _chain_constr_4  10
    RHS1      _chain_cycle  10
BOUNDS
 UP BND1      x0        10
 UP BND1      x1        10
 UP BND1      x2        10
 UP BND1      x3        10
 UP BND1      x4        10
 UP BND1      x5        10
 UP BND1      x6        10
 UP BND1      x7        10
 UP BND1      x8        10
 UP BND1      _chain_var_0  100
 UP BND1      _chain_var_1  100
 UP BND1      _chain_var_2  100
 UP BND1      _chain_var_3  100
 UP BND1      _chain_var_4  100
ENDATA
